c 
c U(n,d) graph
c graph gen seed     : 9552
c number of vertices : 80
c max number of edges: 3160
c Euclidean distance : 0.400000
c data structure     : sparse
c
c           Graph Stats
c number of vertices  : 80
c nonisolated vertices: 80
c number of edges     : 1000
c edge density        : 0.316456
c max degree          : 36
c avg degree          : 25.00
c min degree          : 10
p col 80 1000
e 1 76
e 1 74
e 1 70
e 1 67
e 1 66
e 1 65
e 1 59
e 1 58
e 1 56
e 1 55
e 1 54
e 1 43
e 1 41
e 1 36
e 1 34
e 1 33
e 1 31
e 1 25
e 1 24
e 1 21
e 1 20
e 1 15
e 1 14
e 1 11
e 1 9
e 1 5
e 1 4
e 1 3
e 2 79
e 2 75
e 2 72
e 2 71
e 2 69
e 2 64
e 2 62
e 2 57
e 2 53
e 2 50
e 2 47
e 2 45
e 2 40
e 2 39
e 2 38
e 2 37
e 2 35
e 2 30
e 2 28
e 2 26
e 2 23
e 2 22
e 2 18
e 2 17
e 2 16
e 2 13
e 2 12
e 2 6
e 3 80
e 3 78
e 3 76
e 3 73
e 3 70
e 3 68
e 3 67
e 3 65
e 3 63
e 3 61
e 3 60
e 3 59
e 3 55
e 3 54
e 3 52
e 3 51
e 3 48
e 3 46
e 3 44
e 3 42
e 3 36
e 3 34
e 3 32
e 3 31
e 3 29
e 3 25
e 3 20
e 3 11
e 3 7
e 3 4
e 4 78
e 4 76
e 4 74
e 4 73
e 4 70
e 4 67
e 4 65
e 4 63
e 4 61
e 4 60
e 4 59
e 4 55
e 4 54
e 4 51
e 4 48
e 4 46
e 4 42
e 4 36
e 4 34
e 4 32
e 4 31
e 4 29
e 4 25
e 4 20
e 4 11
e 4 7
e 5 76
e 5 74
e 5 67
e 5 66
e 5 65
e 5 58
e 5 56
e 5 54
e 5 43
e 5 41
e 5 36
e 5 33
e 5 24
e 5 21
e 5 15
e 5 14
e 5 9
e 6 80
e 6 78
e 6 77
e 6 75
e 6 71
e 6 69
e 6 68
e 6 64
e 6 53
e 6 52
e 6 51
e 6 49
e 6 45
e 6 40
e 6 39
e 6 38
e 6 37
e 6 26
e 6 22
e 6 18
e 6 16
e 6 13
e 6 12
e 6 8
e 7 80
e 7 78
e 7 73
e 7 68
e 7 63
e 7 61
e 7 60
e 7 59
e 7 55
e 7 52
e 7 51
e 7 48
e 7 46
e 7 44
e 7 42
e 7 32
e 7 31
e 7 29
e 7 25
e 7 20
e 7 11
e 8 80
e 8 78
e 8 77
e 8 75
e 8 71
e 8 69
e 8 68
e 8 64
e 8 52
e 8 51
e 8 49
e 8 44
e 8 42
e 8 40
e 8 39
e 8 22
e 8 18
e 8 16
e 8 13
e 8 12
e 9 76
e 9 74
e 9 70
e 9 67
e 9 66
e 9 65
e 9 58
e 9 56
e 9 55
e 9 54
e 9 43
e 9 41
e 9 36
e 9 34
e 9 33
e 9 31
e 9 25
e 9 24
e 9 21
e 9 15
e 9 14
e 9 11
e 10 79
e 10 72
e 10 62
e 10 57
e 10 53
e 10 50
e 10 47
e 10 35
e 10 30
e 10 28
e 10 27
e 10 23
e 10 19
e 10 17
e 11 76
e 11 74
e 11 73
e 11 70
e 11 67
e 11 65
e 11 63
e 11 61
e 11 60
e 11 59
e 11 55
e 11 54
e 11 51
e 11 48
e 11 42
e 11 41
e 11 36
e 11 34
e 11 33
e 11 32
e 11 31
e 11 25
e 11 24
e 11 20
e 11 14
e 12 80
e 12 79
e 12 75
e 12 72
e 12 71
e 12 70
e 12 69
e 12 64
e 12 62
e 12 57
e 12 53
e 12 51
e 12 50
e 12 47
e 12 45
e 12 40
e 12 39
e 12 38
e 12 37
e 12 30
e 12 28
e 12 26
e 12 23
e 12 22
e 12 18
e 12 17
e 12 16
e 12 13
e 13 77
e 13 75
e 13 69
e 13 64
e 13 53
e 13 49
e 13 45
e 13 40
e 13 39
e 13 38
e 13 37
e 13 26
e 13 22
e 13 18
e 13 16
e 14 76
e 14 74
e 14 70
e 14 67
e 14 66
e 14 65
e 14 58
e 14 56
e 14 55
e 14 54
e 14 43
e 14 41
e 14 36
e 14 34
e 14 33
e 14 31
e 14 25
e 14 24
e 14 21
e 14 15
e 15 76
e 15 74
e 15 70
e 15 67
e 15 66
e 15 65
e 15 58
e 15 56
e 15 54
e 15 43
e 15 41
e 15 36
e 15 33
e 15 24
e 15 21
e 16 80
e 16 79
e 16 78
e 16 75
e 16 71
e 16 70
e 16 69
e 16 68
e 16 64
e 16 60
e 16 59
e 16 57
e 16 53
e 16 52
e 16 51
e 16 50
e 16 49
e 16 47
e 16 45
e 16 42
e 16 40
e 16 39
e 16 38
e 16 37
e 16 30
e 16 28
e 16 26
e 16 22
e 16 18
e 17 79
e 17 75
e 17 72
e 17 71
e 17 64
e 17 62
e 17 58
e 17 57
e 17 56
e 17 53
e 17 50
e 17 47
e 17 45
e 17 40
e 17 38
e 17 37
e 17 35
e 17 30
e 17 28
e 17 27
e 17 26
e 17 24
e 17 23
e 17 19
e 18 80
e 18 78
e 18 77
e 18 75
e 18 73
e 18 71
e 18 69
e 18 68
e 18 64
e 18 60
e 18 59
e 18 52
e 18 51
e 18 49
e 18 45
e 18 44
e 18 42
e 18 40
e 18 39
e 18 38
e 18 37
e 18 26
e 18 22
e 19 79
e 19 72
e 19 62
e 19 57
e 19 47
e 19 35
e 19 30
e 19 28
e 19 27
e 19 23
e 20 76
e 20 74
e 20 73
e 20 70
e 20 67
e 20 63
e 20 61
e 20 60
e 20 59
e 20 55
e 20 54
e 20 51
e 20 48
e 20 46
e 20 42
e 20 36
e 20 34
e 20 32
e 20 31
e 20 29
e 20 25
e 21 74
e 21 66
e 21 65
e 21 58
e 21 56
e 21 43
e 21 41
e 21 33
e 21 24
e 22 80
e 22 79
e 22 77
e 22 75
e 22 71
e 22 69
e 22 64
e 22 57
e 22 53
e 22 51
e 22 50
e 22 49
e 22 47
e 22 45
e 22 40
e 22 39
e 22 38
e 22 37
e 22 28
e 22 26
e 23 79
e 23 75
e 23 72
e 23 71
e 23 64
e 23 62
e 23 57
e 23 53
e 23 50
e 23 47
e 23 45
e 23 40
e 23 38
e 23 37
e 23 35
e 23 30
e 23 28
e 23 27
e 23 26
e 24 76
e 24 74
e 24 70
e 24 67
e 24 65
e 24 62
e 24 58
e 24 56
e 24 55
e 24 54
e 24 43
e 24 41
e 24 36
e 24 34
e 24 33
e 24 30
e 25 76
e 25 74
e 25 73
e 25 70
e 25 67
e 25 65
e 25 63
e 25 61
e 25 60
e 25 59
e 25 55
e 25 54
e 25 48
e 25 46
e 25 42
e 25 36
e 25 34
e 25 33
e 25 32
e 25 31
e 25 29
e 26 79
e 26 75
e 26 72
e 26 71
e 26 69
e 26 64
e 26 57
e 26 53
e 26 50
e 26 47
e 26 45
e 26 40
e 26 39
e 26 38
e 26 37
e 26 30
e 26 28
e 27 79
e 27 72
e 27 62
e 27 57
e 27 50
e 27 47
e 27 35
e 27 30
e 27 28
e 28 79
e 28 75
e 28 72
e 28 71
e 28 64
e 28 62
e 28 57
e 28 53
e 28 50
e 28 47
e 28 45
e 28 40
e 28 38
e 28 37
e 28 35
e 28 30
e 29 78
e 29 73
e 29 63
e 29 61
e 29 60
e 29 52
e 29 48
e 29 46
e 29 44
e 29 42
e 29 32
e 29 31
e 30 79
e 30 75
e 30 72
e 30 71
e 30 70
e 30 64
e 30 62
e 30 58
e 30 57
e 30 56
e 30 53
e 30 50
e 30 47
e 30 45
e 30 40
e 30 38
e 30 37
e 30 35
e 31 76
e 31 74
e 31 73
e 31 70
e 31 67
e 31 65
e 31 63
e 31 61
e 31 60
e 31 59
e 31 55
e 31 54
e 31 48
e 31 46
e 31 42
e 31 36
e 31 34
e 31 33
e 31 32
e 32 80
e 32 78
e 32 76
e 32 73
e 32 68
e 32 63
e 32 61
e 32 60
e 32 59
e 32 55
e 32 54
e 32 52
e 32 51
e 32 48
e 32 46
e 32 44
e 32 42
e 32 36
e 32 34
e 33 76
e 33 74
e 33 70
e 33 67
e 33 66
e 33 65
e 33 58
e 33 56
e 33 55
e 33 54
e 33 43
e 33 41
e 33 36
e 33 34
e 34 80
e 34 78
e 34 76
e 34 74
e 34 73
e 34 71
e 34 70
e 34 67
e 34 65
e 34 64
e 34 61
e 34 60
e 34 59
e 34 58
e 34 56
e 34 55
e 34 54
e 34 51
e 34 48
e 34 42
e 34 41
e 34 36
e 35 79
e 35 72
e 35 62
e 35 57
e 35 53
e 35 50
e 35 47
e 36 76
e 36 74
e 36 73
e 36 70
e 36 67
e 36 65
e 36 61
e 36 60
e 36 59
e 36 58
e 36 56
e 36 55
e 36 54
e 36 51
e 36 48
e 36 41
e 37 79
e 37 77
e 37 75
e 37 72
e 37 71
e 37 69
e 37 64
e 37 57
e 37 53
e 37 50
e 37 47
e 37 45
e 37 40
e 37 39
e 37 38
e 38 79
e 38 75
e 38 72
e 38 71
e 38 69
e 38 64
e 38 57
e 38 53
e 38 50
e 38 47
e 38 45
e 38 40
e 38 39
e 39 77
e 39 75
e 39 69
e 39 64
e 39 53
e 39 49
e 39 45
e 39 40
e 40 80
e 40 79
e 40 77
e 40 75
e 40 72
e 40 71
e 40 69
e 40 64
e 40 57
e 40 53
e 40 51
e 40 50
e 40 49
e 40 47
e 40 45
e 41 76
e 41 74
e 41 70
e 41 67
e 41 66
e 41 65
e 41 58
e 41 56
e 41 55
e 41 54
e 41 43
e 42 80
e 42 78
e 42 73
e 42 69
e 42 68
e 42 63
e 42 61
e 42 60
e 42 59
e 42 55
e 42 52
e 42 51
e 42 49
e 42 48
e 42 46
e 42 44
e 43 76
e 43 74
e 43 67
e 43 66
e 43 65
e 43 54
e 44 80
e 44 78
e 44 73
e 44 69
e 44 68
e 44 61
e 44 60
e 44 59
e 44 52
e 44 51
e 44 49
e 44 48
e 44 46
e 45 79
e 45 75
e 45 72
e 45 71
e 45 69
e 45 64
e 45 62
e 45 57
e 45 53
e 45 51
e 45 50
e 45 47
e 46 73
e 46 63
e 46 61
e 46 60
e 46 59
e 46 52
e 46 48
e 47 79
e 47 75
e 47 72
e 47 71
e 47 64
e 47 62
e 47 57
e 47 53
e 47 50
e 48 80
e 48 78
e 48 76
e 48 73
e 48 68
e 48 63
e 48 61
e 48 60
e 48 59
e 48 55
e 48 52
e 48 51
e 49 80
e 49 78
e 49 77
e 49 69
e 49 68
e 49 52
e 49 51
e 50 79
e 50 75
e 50 72
e 50 71
e 50 64
e 50 62
e 50 57
e 50 53
e 51 80
e 51 78
e 51 75
e 51 73
e 51 71
e 51 70
e 51 69
e 51 68
e 51 64
e 51 61
e 51 60
e 51 59
e 51 55
e 51 52
e 52 80
e 52 78
e 52 73
e 52 69
e 52 68
e 52 61
e 52 60
e 52 59
e 53 79
e 53 75
e 53 72
e 53 71
e 53 64
e 53 62
e 53 57
e 54 76
e 54 74
e 54 70
e 54 67
e 54 65
e 54 63
e 54 60
e 54 59
e 54 55
e 55 80
e 55 78
e 55 76
e 55 74
e 55 73
e 55 71
e 55 70
e 55 67
e 55 65
e 55 63
e 55 61
e 55 60
e 55 59
e 55 58
e 55 56
e 56 71
e 56 70
e 56 67
e 56 65
e 56 62
e 56 58
e 56 57
e 57 79
e 57 75
e 57 72
e 57 71
e 57 64
e 57 62
e 57 58
e 58 74
e 58 71
e 58 70
e 58 67
e 58 65
e 58 62
e 59 80
e 59 78
e 59 76
e 59 73
e 59 71
e 59 70
e 59 68
e 59 67
e 59 65
e 59 63
e 59 61
e 59 60
e 60 80
e 60 78
e 60 76
e 60 73
e 60 71
e 60 70
e 60 68
e 60 67
e 60 65
e 60 64
e 60 63
e 60 61
e 61 80
e 61 78
e 61 73
e 61 68
e 61 63
e 62 79
e 62 72
e 62 71
e 62 70
e 62 65
e 62 64
e 63 76
e 63 73
e 64 80
e 64 79
e 64 78
e 64 75
e 64 72
e 64 71
e 64 70
e 64 69
e 64 68
e 65 76
e 65 74
e 65 70
e 65 67
e 66 74
e 66 67
e 67 76
e 67 74
e 67 70
e 68 80
e 68 78
e 68 73
e 68 71
e 68 69
e 69 80
e 69 78
e 69 77
e 69 75
e 69 71
e 70 76
e 70 74
e 70 73
e 70 71
e 71 80
e 71 79
e 71 78
e 71 75
e 72 79
e 72 75
e 73 80
e 73 78
e 74 76
e 75 80
e 75 79
e 78 80
